0 96 64 76 86 69 83 66 89 84 86 60 94 89 64 50 73 99 82 92 66 89 88 58 53 60 64 80 70 71 93 77 98 97 74 97 62 84 72 90 91 54 56 58 51 74 67 73 53 97 94 55 83 81 70 75 68 96 55 93 88 91 92 50 50 95 92 50 53 63 80 64 86 79 78 90 55 69 65 76 79 52 55 79 53 54 98 74 70 51 77 99 67 84 55 75 53 95 81 55 98 69 76 78 60 84 66 76 70 50 61 51 90 89 68 73 